c Random generated cnf formula, satisfiable: false
p cnf 10 50
1 3 5 0
-10 -2 -6 0
3 1 -9 0
2 -5 1 0
2 5 -8 0
4 -3 -9 0
-5 7 -9 0
10 4 6 0
2 9 10 0
-10 -5 -6 0
-6 -1 5 0
-2 8 10 0
9 5 3 0
-6 -10 -3 0
9 -2 -5 0
-7 5 9 0
10 -2 7 0
-4 -1 3 0
6 -2 4 0
-10 -5 8 0
2 5 9 0
-3 -9 -7 0
-2 1 6 0
-1 6 3 0
5 1 -3 0
10 3 -2 0
-6 -9 -4 0
-3 -2 -6 0
-10 1 5 0
-4 -9 3 0
1 7 -6 0
5 -8 -2 0
-4 -10 -9 0
-9 -6 -10 0
-1 -7 10 0
9 -7 3 0
6 -10 8 0
1 -10 3 0
9 -1 4 0
4 3 1 0
7 -10 -5 0
5 -4 9 0
1 -9 3 0
6 -1 7 0
-3 10 -2 0
-9 4 10 0
9 -8 -7 0
2 1 -4 0
-2 3 5 0
10 -3 8 0
